NAME : 10_3_3_2_(38).dat
COMMENT : Henke, Speranza, Wäscher, 2015
TYPE : MCVRP
DIMENSION : 11
EDGE_WEIGHT_TYPE : DISTANCE_MATRIX
CAPACITY : 1000
VEHICLES : 2
PRODUCT TYPES : 3
COMPARTMENTS : 3
NODE_COORD_SECTION
1 50 50
2 83.99 72.45
3 43.05 46.98
4 70.1 45.76
5 59.94 90.87
6 39.9 61.39
7 83.53 61.08
8 36.34 98.99
9 90.13 53.23
10 58.51 33.47
11 31.76 44.63
DEMAND_SECTION
1 0 0 0
2 70 84 0
3 155 77 0
4 101 50 0
5 73 44 0
6 0 60 16
7 119 0 51
8 63 0 106
9 88 0 10
10 0 24 87
11 6 67 0
DEPOT_SECTION
1
EOF